Traveling Salesman Problem/TSP_generados/Aleatorio1621103424_14.tsp
NAME: Aleatorio1621103424_14.tsp
COMMENT: Randomly generated scenario
TYPE: TSP
DIMENSION: 14
EDGE_WEIGHT_TYPE: ATT
NODE_COORD_SECTION
1 42.86 30.83
2 37.78 15.56
3 39.71 36.66
4 35.04 17.05
5 46.91 46.04
6 19.18 42.72
7 2.46 11.73
8 25.91 41.29
9 34.79 3.91
10 9.65 49.4
11 3.78 6.78
12 45.21 26.44
13 38.46 35.54
14 30.23 37.52
