Traveling Salesman Problem/TSP_generados/Aleatorio1621103424_14.opt.tour
NAME: Aleatorio1621103424_14.opt.tour
COMMENT: Optimal solution for Aleatorio1621103424_14 (170.54331038021115)
TYPE: TOUR
DIMENSION: 14
TOUR_SECTION
1 5 3 13 14 8 6 10 7 11 9 2 4 12
-1
EOF
